(declare-const MAX Int)
(declare-const term_to_project_onto Real)
(declare-const i Int)
(declare-const term_to_project_onto0 Real)
(declare-const |i'| Int)
(declare-const tr Int)
(declare-const |j'| Int)
(declare-const j Int)
(declare-const tr0 Int)
(assert (and (<= (- i) 0) (<= (+ (- MAX) 1) 0) (= (+ j (- MAX) i 1) 0)
               (<= (+ (- MAX) i 1) 0) (= (+ (- tr0) tr) 0)
               (= (+ |j'| (- j) 1) 0) (= (+ |i'| (- i) -1) 0)
               (= term_to_project_onto0 (+ |i'| (- i)))
               (= term_to_project_onto (+ |j'| (- j)))))
(check-sat)
